c Arquivo pequeno para testar classe Grafo
c Grafo não direcionado (mas representado com arestas simples)

p sp 4 6   c 4 vértices, 6 arestas

a 1 2 3.5
a 2 3 1.0
a 3 4 2.2
a 4 1 4.0
a 2 4 0.8
a 1 3 5.1